
  22   10
  10   10   10   10   10   10   10   10   10   10

   0   0   0   0   0   0   0   0   0   0   0   2 2 7 
   5  10  10  10  10  10  10  10  10  10  10   1 3 
  10  10  10  10  10  10  10  10  10  10  10   1 4 
   4  10  10  10  10  10  10  10  10  10  10   1 5 
   9  10  10  10  10  10  10  10  10  10  10   1 6 
   1  10  10  10  10  10  10  10  10  10  10   1 8 
   7  10  10  10  10  10  10  10  10  10  10   1 8 
  10  10  10  10  10  10  10  10  10  10  10   1 9 
   3  10  10  10  10  10  10  10  10  10  10   1 10 
   3  10  10  10  10  10  10  10  10  10  10   1 11 
   3  10  10  10  10  10  10  10  10  10  10   1 12 
   6  10  10  10  10  10  10  10  10  10  10   1 13 
   6  10  10  10  10  10  10  10  10  10  10   1 14 
   5  10  10  10  10  10  10  10  10  10  10   1 15 
   3  10  10  10  10  10  10  10  10  10  10   2 18 16 
   5  10  10  10  10  10  10  10  10  10  10   1 17 
   9  10  10  10  10  10  10  10  10  10  10   1 19 
   6  10  10  10  10  10  10  10  10  10  10   1 19 
   9  10  10  10  10  10  10  10  10  10  10   1 20 
   1  10  10  10  10  10  10  10  10  10  10   1 21 
   8  10  10  10  10  10  10  10  10  10  10   1 22
   0   0   0   0   0   0   0   0   0   0   0   0 
